NAME : swiss42-R-5-0-a.2365.tour
COMMENT : Length = 2365
COMMENT : Found by LKH-3 [Keld Helsgaun] Tue Jul 30 13:14:22 2024
TYPE : TOUR
DIMENSION : 42
TOUR_SECTION
1
8
38
17
20
19
4
30
40
31
11
13
5
15
16
37
36
33
28
3
7
27
42
41
25
22
10
24
6
2
18
32
34
21
35
39
23
29
9
26
12
14
-1
EOF
